14 31 73
1 2 3
1 5 5
1 6 1
1 7 4
1 8 1
1 10 1
1 11 2
1 12 4
1 14 3
2 6 2
2 7 1
2 9 1
2 14 3
3 4 5
3 6 2
3 10 4
3 11 1
4 6 1
4 8 4
4 12 4
5 6 3
5 8 3
5 9 5
5 10 1
5 13 5
5 14 1
6 9 4
6 13 4
8 9 4
9 11 3
10 12 3
